AES/1_5_4/ssaes_r1-20_c5_rw1_e4_f0_k1-20_aes_min_box_aes_mc_bidirectional/ExperimentMinisat_r19_k5cnf_2011-10-29-182213/Result
WARNING: for repeatability, setting FPU to use double precision
============================[ Problem Statistics ]=============================
|                                                                             |
|  Number of variables:          1732                                         |
|  Number of clauses:            7148                                         |
|  Parse time:                   0.00 s                                       |
|  Eliminated clauses:           0.02 Mb                                      |
|  Simplification time:          0.01 s                                       |
|                                                                             |
=============================[ Search Statistics ]==============================
| Conflicts  |          ORIGINAL         |          LEARNT          | Progress |
|            |    Vars  Clauses Literals |    Limit  Clauses Lit/Cl |          |
================================================================================
|        100 |    1216     5508    18308 |     2019      100     10 |  6.698 % |
|        250 |    1216     5508    18308 |     2221      250     13 |  6.697 % |
|        475 |    1216     5508    18308 |     2443      475     14 |  6.697 % |
|        812 |    1216     5508    18308 |     2688      812     16 |  6.697 % |
|       1318 |    1216     5508    18308 |     2956     1318     17 |  6.697 % |
|       2077 |    1216     5508    18308 |     3252     2077     17 |  6.697 % |
|       3216 |    1216     5508    18308 |     3577     3216     18 |  6.697 % |
|       4924 |    1216     5508    18308 |     3935     3069     16 |  6.697 % |
|       7486 |    1216     5508    18308 |     4329     3585     17 |  6.697 % |
|      11330 |    1216     5508    18308 |     4762     2921     14 |  6.697 % |
|      17096 |    1216     5508    18308 |     5238     3748     15 |  6.697 % |
|      25745 |    1216     5508    18308 |     5762     4294     16 |  6.697 % |
|      38719 |    1216     5508    18308 |     6338     5437     16 |  6.697 % |
|      58180 |    1216     5508    18308 |     6972     5441     16 |  6.697 % |
|      87372 |    1216     5508    18308 |     7669     6096     18 |  6.697 % |
|     131161 |    1216     5508    18308 |     8436     6848     17 |  6.697 % |
|     196845 |    1216     5508    18308 |     9280     8067     17 |  6.697 % |
|     295371 |    1216     5508    18308 |    10208     7557     15 |  6.697 % |
|     443160 |    1216     5508    18308 |    11228    10258     17 |  6.697 % |
|     664843 |    1216     5508    18308 |    12351     9975     18 |  6.697 % |
|     997368 |    1216     5508    18308 |    13586    11054     17 |  6.697 % |
|    1496156 |    1216     5508    18308 |    14945     8179     16 |  6.697 % |
|    2244338 |    1216     5508    18308 |    16440     8777     15 |  6.697 % |
|    3366612 |    1216     5508    18308 |    18084    10752     18 |  6.697 % |
===============================================================================
restarts              : 6142
conflicts             : 3496574        (7846 /sec)
decisions             : 3884721        (0.00 % random) (8716 /sec)
propagations          : 1737112224     (3897682 /sec)
conflict literals     : 78284972       (57.73 % deleted)
Memory used           : 14.00 MB
CPU time              : 445.678 s

SATISFIABLE
